proyfinal/src/viki/013/experimentInOfficeAgust.take6.output/d3fee9c1-231e-4de8-a3f4-edacf525b5d0.als.out
Reading from standard input... Use '--help' for help.
============================[ Problem Statistics ]=============================
|                                                                             |
|  Number of variables:         87638                                         |
|  Number of clauses:          161767                                         |
|  Parse time:                   0.03 s                                       |
|                                                                             |
============================[ Search Statistics ]==============================
| Conflicts |          ORIGINAL         |          LEARNT          | Progress |
|           |    Vars  Clauses Literals |    Limit  Clauses Lit/Cl |          |
===============================================================================
|       100 |   61931   103649   258889 |    38004      100      9 | 29.333 % |
|       250 |   61923   103617   258801 |    41805      232     70 | 29.342 % |
|       475 |   61922   103573   258711 |    45985      456     75 | 29.343 % |
|       812 |   61877   103489   258518 |    50584      791     87 | 29.395 % |
|      1318 |   61877   103391   258273 |    55642     1297     79 | 29.395 % |
|      2077 |   61877   103391   258273 |    61206     2056     98 | 29.395 % |
|      3216 |   61793   103061   257483 |    67327     3186    103 | 29.491 % |
|      4924 |   61755   102909   257125 |    74060     4584     95 | 29.534 % |
|      7486 |   46808    59562   150833 |    81466     6099     84 | 46.589 % |
===============================================================================
restarts              : 34
conflicts             : 8273           (7016 /sec)
decisions             : 31559          (0.00 % random) (26762 /sec)
propagations          : 12516964       (10614550 /sec)
conflict literals     : 657969         (46.87 % deleted)
Memory used           : 30.13 MB
CPU time              : 1.17923 s

UNSATISFIABLE
